50
    11    67    60    11    31    17   100    38    78    77     6    17    14    97    21    43    92    44    34    80    57   100    70    54    42    63    97    58    73    47    23    51    66    79    96    57    27     6     5    67    53    86    80    36    31    96    92    84    40    28
     2     3     7    10     2     6     3    10     5    10     4     8     5     4     1     5     8    10     8     5     5     8     2     8     4     9     1     5    10    10     5     8     8     3     6     5     6     5     1     8     2     6     5     7    10     3     9    10     3     7
    14     0  1058   433     0   433   823     0     0     0     0   459     0     0  1078   750   202   813     0   783   922   251     0     0     0     0  1051  1023     0     0     0  1016     0   917   259   730     0     0     0   553   886     0     0     0     0     0   273     0     0     0
